100 2034
701 1064 825 337 966 1014 1154 800 575 1115 586 1024 807 730 503 963 959 162 723 1001 1062 954 1067 1110 640 278 1144 1077 332 403 787 1069 885 959 634 932 506 1013 928 1112 1020 948 262 1089 706 534 988 973 1146 467 416 373 613 428 1136 1121 613 732 1099 739 281 627 670 910 890 829 1049 1072 1051 445 368 803 858 1146 1013 1107 830 1025 151 965 778 1146 73 1005 1073 1105 820 564 1151 1013 467 1136 688 926 854 1052 865 1099 976 1133 
299 796 429 65 623 702 999 401 196 904 204 720 408 327 148 617 611 15 320 679 791 604 801 893 246 44 973 821 63 94 386 805 505 612 241 570 150 700 564 897 713 595 39 848 304 168 658 634 978 127 100 80 224 106 953 919 224 329 869 336 45 235 271 539 512 434 766 811 770 115 78 404 470 979 700 887 435 722 13 621 376 979 3 687 814 882 423 188 993 700 127 955 287 562 465 772 478 869 638 946 
